results_rootrelaxation/bin018_070_020.srr.sol
solution status: optimal solution found
objective value:                     3.50726527801172
_var2999_                          0.0868155703708436 	(obj:0)
_var3027_                           0.341975189566727 	(obj:0)
_var3031_                           0.494820300955107 	(obj:0)
_var3196_                          0.0805639670282594 	(obj:0)
_var3212_                           0.303089816590328 	(obj:0)
_var3216_                           0.156285470129999 	(obj:0)
_var3306_                           0.368653395865782 	(obj:0)
_var3307_                           0.145839089653391 	(obj:0)
_var3321_                          0.0155621884776217 	(obj:0)
_var3336_                           0.207190578846532 	(obj:0)
_var3337_                          0.0183142888839714 	(obj:0)
_var3352_                           0.337729066218917 	(obj:0)
_var3387_                           0.260739025182097 	(obj:0)
_var3391_                          0.0862095601412168 	(obj:1)
_var3400_                            0.26713042661835 	(obj:0)
_var3403_                          0.0273721840559177 	(obj:0)
_var3408_                           0.175827222684987 	(obj:0)
_var3409_                           0.100070251628486 	(obj:1)
_var3415_                           0.047821338896725 	(obj:0)
_var3422_                           0.256603725778955 	(obj:0)
_var3427_                           0.158441082041554 	(obj:1)
_var3433_                           0.221327941069868 	(obj:0)
_var3436_                          0.0531157715111829 	(obj:0)
_var3437_                           0.155923657740505 	(obj:0)
_var3442_                          0.0669329650376423 	(obj:1)
_var3443_                           0.479172644055196 	(obj:0)
_var3446_                           0.298807327156815 	(obj:0)
_var3450_                           0.269684365887962 	(obj:0)
_var3474_                          0.0221968925233815 	(obj:0)
_var3475_                          0.0602712029844726 	(obj:0)
_var3477_                          0.0426423861996088 	(obj:1)
_var3478_                            0.08475131210454 	(obj:1)
_var3486_                           0.182868795517117 	(obj:0)
_var3490_                          0.0636722411859468 	(obj:0)
_var3491_                          0.0211528119163023 	(obj:0)
_var3498_                           0.499914057859568 	(obj:0)
_var3499_                          0.0684376311691667 	(obj:0)
_var3501_                           0.205897876451844 	(obj:0)
_var3503_                          0.0697981603354869 	(obj:0)
_var3504_                          0.0846748274086216 	(obj:1)
_var3510_                           0.021531572781153 	(obj:1)
_var3521_                          0.0574597292585858 	(obj:0)
_var3522_                          0.0934248657217903 	(obj:0)
_var3523_                           0.171769979465228 	(obj:0)
_var3525_                           0.213083777670008 	(obj:0)
_var3526_                          0.0139220147854058 	(obj:0)
_var3529_                           0.093857618371279 	(obj:1)
_var3534_                            0.00191777349591 	(obj:0)
_var3539_                           0.150171970130216 	(obj:0)
_var3540_                          0.0288584264184327 	(obj:1)
_var3541_                           0.166589443196019 	(obj:1)
_var3546_                          0.0341142945082626 	(obj:1)
_var3547_                          0.0751223569514413 	(obj:0)
_var3548_                           0.207390397030029 	(obj:1)
_var3551_                           0.100070251628486 	(obj:2)
_var3553_                          0.0424034272955315 	(obj:0)
_var3555_                          0.0553393571436633 	(obj:1)
_var3578_                            0.12836027813822 	(obj:1)
_var3579_                          0.0576935227012849 	(obj:0)
_var3580_                          0.0971709442732561 	(obj:1)
_var3583_                           0.112664895584679 	(obj:1)
_var3585_                           0.427760903443079 	(obj:0)
_var3587_                            0.13617998137317 	(obj:0)
_var3589_                           0.156708638687867 	(obj:0)
_var3592_                          0.0967279409430278 	(obj:0)
_var3598_                           0.182868795517117 	(obj:1)
_var3599_                          0.0159236131916507 	(obj:1)
_var3600_                          0.0806664322644713 	(obj:0)
_var3607_                           0.285246554365581 	(obj:0)
_var3608_                           0.191114948533222 	(obj:0)
_var3614_                           0.135106257611051 	(obj:1)
_var3616_                          0.0183142888839714 	(obj:0)
_var3617_                           0.308558732168113 	(obj:0)
_var3619_                           0.182761949838143 	(obj:0)
_var3621_                          0.0288584264184347 	(obj:0)
_var3623_                          0.0183142888839714 	(obj:0)
_var3627_                           0.124362364733265 	(obj:1)
_var3629_                          0.0765666752575254 	(obj:1)
_var3631_                           0.175962370606598 	(obj:0)
_var3634_                          0.0805392640767954 	(obj:0)
_var3636_                          0.0334937933370414 	(obj:1)
_var3638_                          0.0189358061322927 	(obj:0)
_var3642_                         0.00183334628678677 	(obj:0)
_var3645_                          0.0757569710565016 	(obj:1)
_var3648_                          0.0184074692444178 	(obj:1)
_var3650_                           0.165718068625801 	(obj:0)
_var3654_                         0.00894534070586511 	(obj:0)
_var3657_                          0.0643613725160957 	(obj:0)
_var3658_                          0.0255112422366462 	(obj:1)
_var3661_                          0.0531157715111829 	(obj:0)
_var3662_                           0.183657654185917 	(obj:0)
_var3663_                          0.0601312096029152 	(obj:1)
_var3665_                          0.0447029151439495 	(obj:0)
_var3666_                           0.136099716116357 	(obj:1)
_var3667_                          0.0239274651737664 	(obj:0)
_var3669_                           0.210863228667553 	(obj:0)
_var3674_                          0.0230968835370577 	(obj:0)
_var3676_                           0.204580122101111 	(obj:0)
_var3684_                         1.56607353840321e-05 	(obj:0)
_var3686_                           0.159530955725558 	(obj:1)
_var3687_                          0.0577690604442807 	(obj:0)
_var3694_                          0.0987037922843436 	(obj:0)
_var3698_                          0.0375936624895124 	(obj:0)
_var3699_                           0.108387386959151 	(obj:0)
_var3700_                          0.0887566657847864 	(obj:1)
_var3701_                          0.0410734800196288 	(obj:0)
_var3702_                          0.0235035763709605 	(obj:0)
_var3704_                           0.159607819879387 	(obj:0)
_var3708_                           0.130323964590758 	(obj:1)
_var3710_                           0.078538678847333 	(obj:0)
_var3713_                          0.0478534420024471 	(obj:1)
_var3717_                           0.021531572781153 	(obj:0)
_var3718_                           0.138934173873554 	(obj:0)
_var3721_                          0.0926933027800526 	(obj:0)
_var3726_                          0.0183142888839714 	(obj:0)
_var3730_                           0.274972893460653 	(obj:0)
_var3732_                           0.150759532421551 	(obj:0)
_var3733_                           0.228121034229823 	(obj:0)
_var3735_                          0.0324927099030198 	(obj:0)
_var3737_                          0.0567938130182041 	(obj:0)
_var3739_                          0.0551653208288886 	(obj:0)
_var3740_                           0.243075110716052 	(obj:0)
_var3741_                          0.0982369053416989 	(obj:1)
_var3742_                          0.0692877686646101 	(obj:1)
_var3743_                            0.34839346242345 	(obj:0)
_var3745_                          0.0311116397375925 	(obj:0)
_var3748_                           0.156672770489606 	(obj:0)
_var3751_                          0.0379364932827015 	(obj:0)
_var3752_                           0.105876144196578 	(obj:0)
_var3753_                         0.00255393926961006 	(obj:0)
_var3755_                           0.131137501074945 	(obj:0)
_var3756_                          0.0689058899609134 	(obj:0)
_var3759_                           0.016362309553796 	(obj:1)
_var3760_                           0.156958547248662 	(obj:0)
_var3761_                           0.212505517656342 	(obj:1)
_var3765_                          0.0520189264361768 	(obj:0)
_var3766_                          0.0579436961575334 	(obj:0)
_var3768_                           0.016638776784403 	(obj:1)
_var3769_                          0.0247224841120837 	(obj:0)
_var3770_                          0.0574718477423266 	(obj:0)
_var3771_                          0.0755849359592277 	(obj:0)
_var3772_                          0.0275375987003382 	(obj:0)
_var3774_                          0.0138007487392011 	(obj:1)
_var3775_                         0.00693589017956327 	(obj:0)
